p tw 447 818
0 1
0 107
0 185
0 186
0 60
0 125
0 262
0 24
0 143
0 177
0 383
0 394
1 60
1 123
1 125
1 186
1 143
1 366
1 180
1 264
1 45
1 59
2 3
2 4
2 5
2 234
2 180
2 337
2 398
3 4
3 5
3 181
3 11
4 5
4 115
4 398
5 180
5 181
5 182
5 234
5 60
5 179
5 264
5 268
5 337
5 44
5 45
5 369
5 327
5 336
5 430
6 7
6 263
7 21
7 68
7 323
8 9
8 235
8 287
8 288
9 235
9 339
10 11
10 313
12 13
12 14
12 176
12 177
12 178
12 179
13 14
13 141
14 141
14 142
15 16
15 17
15 18
15 340
16 17
16 18
16 174
16 373
17 18
17 77
17 412
18 93
18 60
19 20
19 29
19 30
21 22
21 23
21 24
21 55
21 66
21 67
21 68
21 53
21 122
21 173
21 57
21 323
21 316
21 430
21 46
21 172
22 23
22 24
22 149
22 274
22 275
23 24
23 150
23 172
23 316
24 107
24 174
24 193
24 194
24 64
24 60
24 143
24 177
24 31
24 372
24 385
25 26
25 228
26 282
26 283
26 347
27 28
27 352
29 30
30 87
31 32
32 347
33 34
33 282
34 61
35 36
35 37
35 170
36 37
36 91
36 92
37 91
38 39
38 103
38 104
40 41
40 403
41 235
41 339
42 43
42 44
42 45
42 46
42 83
42 238
42 79
43 44
43 45
43 46
43 82
43 83
43 84
44 45
44 46
44 58
44 59
44 60
44 90
44 88
44 245
44 353
44 354
44 356
44 359
44 180
44 369
44 294
45 46
45 356
45 359
45 180
45 369
45 88
45 59
45 186
45 114
46 68
46 172
47 48
47 49
47 116
48 49
48 112
49 115
49 116
50 51
50 52
50 355
51 52
51 403
52 133
52 335
53 54
53 55
53 109
53 217
53 240
53 68
53 418
53 426
54 55
54 215
54 240
54 342
55 66
55 67
55 68
55 156
55 171
55 172
55 173
55 84
55 238
55 323
55 148
55 241
55 362
55 360
55 57
55 418
55 329
55 422
55 275
56 57
56 74
57 66
57 68
58 59
58 60
58 178
58 367
58 412
59 60
59 186
60 123
60 125
60 186
60 262
60 179
60 264
60 143
60 177
60 366
60 185
60 194
60 367
60 394
61 62
61 63
62 63
62 370
62 381
63 381
64 65
65 371
66 67
66 68
66 81
66 156
66 172
66 328
66 336
67 68
67 267
68 148
68 172
68 216
68 316
68 122
68 173
68 418
68 329
68 422
68 323
68 430
69 70
69 87
69 324
69 424
70 113
71 72
71 162
71 163
72 388
73 74
73 377
75 76
75 214
76 239
77 78
79 80
81 270
82 83
82 84
82 391
83 84
83 238
84 238
85 86
86 150
88 89
88 90
88 245
88 353
88 354
89 90
89 254
89 354
91 92
92 227
92 295
93 94
95 96
95 164
96 140
97 98
97 99
97 206
98 99
98 154
99 184
100 101
100 102
100 175
100 242
100 394
101 102
101 415
101 416
102 416
103 104
104 390
105 106
105 272
106 385
107 108
107 185
107 186
107 174
107 193
107 194
107 215
107 216
107 217
107 287
107 355
107 205
108 194
108 226
108 227
108 295
108 296
108 288
109 265
110 111
110 271
111 258
111 304
111 305
112 231
113 114
115 116
115 398
117 118
117 341
118 431
119 120
120 184
121 122
121 123
121 124
121 125
121 174
122 123
122 124
122 173
123 124
123 125
123 186
124 130
124 317
125 126
125 174
125 175
125 186
125 262
125 343
125 356
125 160
125 181
125 143
125 366
125 355
125 402
125 138
125 385
125 410
125 414
125 394
127 128
127 257
128 333
129 130
129 246
129 317
130 317
131 132
131 247
131 399
132 260
132 399
133 199
134 135
134 145
134 183
134 236
135 249
136 137
136 293
137 338
137 343
137 344
138 139
138 140
138 385
139 140
139 198
140 432
141 142
142 421
143 144
143 177
143 186
143 366
143 180
143 264
143 394
144 435
145 221
146 147
146 162
147 294
148 149
148 150
148 164
148 241
148 360
148 275
149 150
149 274
149 275
150 172
150 316
151 152
151 153
151 253
151 254
152 153
152 388
153 253
154 155
155 443
155 444
156 222
156 327
156 328
157 158
157 436
158 340
159 160
159 161
159 334
160 161
160 181
161 315
161 269
162 163
162 361
163 184
165 166
165 167
165 244
166 167
166 209
167 184
168 169
168 208
168 292
169 207
169 208
170 237
171 172
171 173
171 346
172 173
172 216
172 316
172 238
172 323
174 175
174 193
174 194
174 410
174 414
175 242
175 394
176 177
176 178
176 179
176 193
176 369
177 178
177 179
178 179
178 367
178 412
179 264
180 181
180 182
180 369
180 264
180 239
180 327
180 336
180 430
181 182
181 213
182 234
182 247
183 184
183 236
184 218
184 301
184 350
185 186
185 194
185 367
186 262
187 188
188 387
189 190
189 308
189 423
190 246
191 192
191 441
192 218
192 314
192 255
193 194
193 369
194 215
194 216
194 217
194 226
194 227
194 287
194 355
194 367
194 296
194 411
194 288
195 196
195 313
196 203
197 198
197 300
199 319
199 405
200 201
200 324
201 325
202 203
203 302
203 363
204 205
204 335
206 252
207 208
207 303
208 292
209 285
210 211
210 222
211 299
212 213
212 214
212 400
213 214
214 259
215 216
215 217
215 240
215 342
216 217
216 316
217 240
217 297
218 314
219 220
219 358
219 326
220 325
220 326
221 411
222 327
222 328
223 224
223 225
224 225
225 421
226 227
226 331
226 355
227 295
228 229
228 230
229 230
229 384
231 314
232 233
233 427
233 428
234 247
235 339
236 237
238 323
238 357
238 316
238 338
240 342
241 242
242 394
243 244
243 263
245 358
245 359
246 317
247 399
248 249
248 250
249 250
250 266
251 252
251 386
253 254
254 354
255 256
256 268
257 345
259 395
260 261
260 399
261 400
262 414
262 419
262 422
265 329
267 292
267 366
267 410
269 270
271 291
272 273
273 280
274 275
274 322
276 277
276 278
277 278
277 315
278 375
279 280
279 281
279 417
280 281
280 445
282 283
283 385
284 285
284 286
285 286
287 288
287 355
289 290
289 441
289 442
291 330
292 366
292 410
293 408
293 413
295 296
297 298
299 334
300 322
301 376
301 397
302 303
302 363
304 305
304 365
306 307
306 395
306 446
308 309
308 332
308 423
309 440
310 311
310 312
311 312
311 382
316 430
318 319
319 405
320 321
320 353
321 368
324 424
325 326
326 358
327 328
327 336
327 430
328 336
329 422
330 331
333 360
336 401
336 430
337 398
341 342
343 344
343 356
344 404
345 350
345 351
346 357
348 349
348 404
349 391
350 351
351 382
353 354
353 356
355 402
356 359
356 424
358 359
361 407
364 365
364 433
364 434
366 410
367 412
368 440
370 371
370 372
370 381
371 372
372 385
373 374
376 377
376 397
378 379
378 380
378 396
379 380
383 429
386 418
389 390
389 426
389 402
389 439
392 393
392 406
392 407
395 446
396 397
401 425
402 439
406 407
408 409
408 413
414 419
414 422
415 416
415 417
419 420
419 422
419 433
420 433
420 434
427 428
427 432
431 439
433 434
436 437
436 438
437 438
441 442
443 444
